NAME : lc103.1035350.tour
COMMENT : Cost = 0_1035350
COMMENT : Found by LKH [Keld Helsgaun] Fri Sep 15 17:42:00 2017
TYPE : TOUR
DIMENSION : 113
TOUR_SECTION
1
21
26
28
16
31
25
24
19
17
15
106
58
56
55
54
57
59
61
60
23
22
109
91
88
99
93
85
86
89
87
90
92
113
14
18
20
95
94
103
98
101
100
97
96
13
112
82
79
77
72
71
74
78
80
81
84
83
64
110
6
4
8
9
11
12
10
7
5
3
2
76
108
68
66
63
75
73
62
65
69
67
70
107
33
34
32
36
105
38
39
40
37
35
30
29
27
104
111
44
43
42
41
45
47
102
46
49
52
51
53
50
48
-1
EOF
